treewidth/data/DyckGraph.gr
p tw 32 48
1 2
1 30
1 31
2 13
2 32
13 24
13 3
24 27
24 4
27 28
27 5
28 29
28 6
29 30
29 7
30 8
31 10
31 17
32 9
32 11
3 10
3 12
4 11
4 14
5 12
5 15
6 14
6 16
7 15
7 17
8 9
8 16
9 18
10 19
11 20
12 21
14 22
15 23
16 25
17 26
18 21
18 23
19 22
19 25
20 23
20 26
21 25
22 26
