treewidth/data/DyckGraph.td
c width = 7, time = 0.391293
s td 16 8 32
b 1 6 8 10 16 19 21 22 25
b 2 4 6 8 10 21 22 26 28
b 3 2 4 8 10 15 21 26 28
b 4 2 8 10 15 26 28 31
b 5 2 8 15 26 28 29 31
b 6 1 2 8 29 30 31
b 7 7 15 17 26 29 31
b 8 2 4 10 15 21 27 28
b 9 2 4 10 13 15 21 27
b 10 3 5 10 12 13 15 21 27
b 11 4 13 24 27
b 12 2 4 8 15 21 26 32
b 13 4 8 15 21 23 26 32
b 14 8 9 18 21 23 32
b 15 4 11 20 23 26 32
b 16 4 6 14 22
5 6
5 7
4 5
3 4
9 10
9 11
8 9
3 8
13 14
13 15
12 13
3 12
2 3
2 16
1 2
